p edge 726 1452
e 1 715
e 1 716
e 1 595
e 1 719
e 1 720
e 1 564
e 1 563
e 1 596
e 1 343
e 1 344
e 2 721
e 2 717
e 2 718
e 2 597
e 2 722
e 2 565
e 2 566
e 2 345
e 2 346
e 2 598
e 3 259
e 3 260
e 3 683
e 3 684
e 3 527
e 3 528
e 3 623
e 3 624
e 3 255
e 3 256
e 4 257
e 4 258
e 4 261
e 4 262
e 4 626
e 4 685
e 4 686
e 4 529
e 4 530
e 4 625
e 5 699
e 5 700
e 5 375
e 5 376
e 6 377
e 6 378
e 6 701
e 6 702
e 7 355
e 7 356
e 8 357
e 8 358
e 9 692
e 9 435
e 9 436
e 9 691
e 10 693
e 10 437
e 10 438
e 10 694
e 11 487
e 11 488
e 11 523
e 11 524
e 11 659
e 11 660
e 12 489
e 12 490
e 12 525
e 12 526
e 12 661
e 12 662
e 13 547
e 13 548
e 13 455
e 13 456
e 13 675
e 13 499
e 13 500
e 13 693
e 13 676
e 13 708
e 13 691
e 13 707
e 14 549
e 14 550
e 14 457
e 14 458
e 14 694
e 14 710
e 14 692
e 14 501
e 14 502
e 14 677
e 14 709
e 14 678
e 15 529
e 15 531
e 15 532
e 15 527
e 16 530
e 16 533
e 16 534
e 16 528
e 17 671
e 17 407
e 17 408
e 17 379
e 17 380
e 17 672
e 17 287
e 17 288
e 18 289
e 18 290
e 18 674
e 18 409
e 18 410
e 18 673
e 18 381
e 18 382
e 19 447
e 19 448
e 20 449
e 20 450
e 21 571
e 21 572
e 21 583
e 21 584
e 22 585
e 22 586
e 22 573
e 22 574
e 23 449
e 23 447
e 23 439
e 23 440
e 23 575
e 23 576
e 24 577
e 24 450
e 24 578
e 24 441
e 24 442
e 24 448
e 25 540
e 25 487
e 25 489
e 25 299
e 25 300
e 25 411
e 25 412
e 25 539
e 26 488
e 26 490
e 26 301
e 26 302
e 26 542
e 26 413
e 26 414
e 26 541
e 27 515
e 27 516
e 27 695
e 27 583
e 27 585
e 27 696
e 27 531
e 27 403
e 27 404
e 27 533
e 27 279
e 27 280
e 28 517
e 28 518
e 28 584
e 28 586
e 28 697
e 28 532
e 28 405
e 28 406
e 28 698
e 28 281
e 28 282
e 28 534
e 29 323
e 29 324
e 29 543
e 29 544
e 30 545
e 30 546
e 30 325
e 30 326
e 31 631
e 31 472
e 31 471
e 31 632
e 31 687
e 31 688
e 31 663
e 31 664
e 32 634
e 32 633
e 32 689
e 32 665
e 32 666
e 32 473
e 32 474
e 32 690
e 33 608
e 33 607
e 33 263
e 33 264
e 34 265
e 34 266
e 34 609
e 34 610
e 35 419
e 35 420
e 35 455
e 35 457
e 35 415
e 35 416
e 36 417
e 36 418
e 36 421
e 36 422
e 36 456
e 36 458
e 37 707
e 37 709
e 37 399
e 37 400
e 38 401
e 38 402
e 38 708
e 38 710
e 39 523
e 39 525
e 39 691
e 39 694
e 40 692
e 40 524
e 40 693
e 40 526
e 41 673
e 41 556
e 41 519
e 41 327
e 41 328
e 41 520
e 41 395
e 41 396
e 41 463
e 41 464
e 41 625
e 41 623
e 41 555
e 41 671
e 42 674
e 42 521
e 42 626
e 42 329
e 42 330
e 42 397
e 42 398
e 42 558
e 42 465
e 42 466
e 42 522
e 42 624
e 42 672
e 42 557
e 43 492
e 43 331
e 43 332
e 43 535
e 43 536
e 43 491
e 44 333
e 44 493
e 44 334
e 44 494
e 44 537
e 44 538
e 45 419
e 45 421
e 46 420
e 46 422
e 47 419
e 47 422
e 47 495
e 47 496
e 47 471
e 47 473
e 47 383
e 47 384
e 48 385
e 48 386
e 48 420
e 48 421
e 48 497
e 48 498
e 48 472
e 48 474
e 49 289
e 49 355
e 49 636
e 49 357
e 49 439
e 49 441
e 49 283
e 49 284
e 49 635
e 49 287
e 50 290
e 50 356
e 50 358
e 50 637
e 50 638
e 50 440
e 50 442
e 50 285
e 50 286
e 50 288
e 51 680
e 51 679
e 51 567
e 51 568
e 52 569
e 52 570
e 52 681
e 52 682
e 53 387
e 53 388
e 53 595
e 53 597
e 53 567
e 53 569
e 53 251
e 53 252
e 53 508
e 53 507
e 53 351
e 53 352
e 54 353
e 54 354
e 54 389
e 54 390
e 54 509
e 54 510
e 54 596
e 54 598
e 54 568
e 54 570
e 54 253
e 54 254
e 55 451
e 55 452
e 55 359
e 55 360
e 55 643
e 55 499
e 55 644
e 55 501
e 56 453
e 56 454
e 56 361
e 56 362
e 56 500
e 56 502
e 56 645
e 56 646
e 57 483
e 57 484
e 57 427
e 57 428
e 57 475
e 57 476
e 58 485
e 58 486
e 58 429
e 58 430
e 58 477
e 58 478
e 59 359
e 59 551
e 59 552
e 59 361
e 59 667
e 59 668
e 60 360
e 60 553
e 60 362
e 60 554
e 60 669
e 60 670
e 61 553
e 61 551
e 62 554
e 62 552
e 63 367
e 63 368
e 63 303
e 63 539
e 63 304
e 63 541
e 64 369
e 64 370
e 64 305
e 64 306
e 64 540
e 64 542
e 65 609
e 65 355
e 65 358
e 65 275
e 65 276
e 65 315
e 65 316
e 65 607
e 66 610
e 66 356
e 66 357
e 66 277
e 66 278
e 66 317
e 66 318
e 66 608
e 67 689
e 67 687
e 67 559
e 67 560
e 68 561
e 68 562
e 68 690
e 68 688
e 69 547
e 69 549
e 69 363
e 69 364
e 69 659
e 69 661
e 70 548
e 70 550
e 70 365
e 70 366
e 70 660
e 70 662
e 71 663
e 71 519
e 71 521
e 71 267
e 71 268
e 71 467
e 71 468
e 71 471
e 71 665
e 71 474
e 71 703
e 71 704
e 72 705
e 72 706
e 72 520
e 72 522
e 72 664
e 72 269
e 72 270
e 72 469
e 72 470
e 72 472
e 72 473
e 72 666
e 73 265
e 73 335
e 73 263
e 73 336
e 74 337
e 74 266
e 74 338
e 74 264
e 75 675
e 75 677
e 75 331
e 75 333
e 75 275
e 75 277
e 75 639
e 75 640
e 76 641
e 76 642
e 76 676
e 76 678
e 76 332
e 76 334
e 76 276
e 76 278
e 77 545
e 77 459
e 77 460
e 77 311
e 77 312
e 77 543
e 78 546
e 78 461
e 78 462
e 78 313
e 78 314
e 78 544
e 79 251
e 79 444
e 79 253
e 79 443
e 80 252
e 80 445
e 80 254
e 80 446
e 81 675
e 81 678
e 81 559
e 81 561
e 81 243
e 81 244
e 82 676
e 82 677
e 82 560
e 82 562
e 82 245
e 82 246
e 83 546
e 83 543
e 84 545
e 84 544
e 85 555
e 85 557
e 85 559
e 85 592
e 85 305
e 85 562
e 85 303
e 85 591
e 86 593
e 86 594
e 86 556
e 86 558
e 86 560
e 86 561
e 86 306
e 86 304
e 87 353
e 87 343
e 87 345
e 87 667
e 87 669
e 87 351
e 88 354
e 88 344
e 88 346
e 88 668
e 88 670
e 88 352
e 89 307
e 89 308
e 89 461
e 89 459
e 90 460
e 90 309
e 90 310
e 90 462
e 91 563
e 91 565
e 92 564
e 92 566
e 93 611
e 93 612
e 93 701
e 93 699
e 94 700
e 94 613
e 94 614
e 94 702
e 95 641
e 95 639
e 96 642
e 96 640
e 97 458
e 97 519
e 97 455
e 97 522
e 98 457
e 98 521
e 98 520
e 98 456
e 99 551
e 99 554
e 99 395
e 99 397
e 99 315
e 99 317
e 100 552
e 100 553
e 100 396
e 100 398
e 100 316
e 100 318
e 101 323
e 101 325
e 101 431
e 101 432
e 102 433
e 102 434
e 102 324
e 102 326
e 103 423
e 103 424
e 103 715
e 103 717
e 103 307
e 103 309
e 103 279
e 103 281
e 104 425
e 104 426
e 104 716
e 104 718
e 104 308
e 104 310
e 104 280
e 104 282
e 105 354
e 105 583
e 105 487
e 105 490
e 105 586
e 105 507
e 105 509
e 105 351
e 106 353
e 106 488
e 106 489
e 106 584
e 106 585
e 106 508
e 106 510
e 106 352
e 107 269
e 107 259
e 107 261
e 107 267
e 108 268
e 108 260
e 108 262
e 108 270
e 109 647
e 109 503
e 109 615
e 109 616
e 109 648
e 109 399
e 109 401
e 109 407
e 109 504
e 109 409
e 110 506
e 110 617
e 110 618
e 110 649
e 110 650
e 110 400
e 110 402
e 110 408
e 110 505
e 110 410
e 111 410
e 111 407
e 111 295
e 111 296
e 112 297
e 112 298
e 112 409
e 112 408
e 113 587
e 113 588
e 113 403
e 113 405
e 113 375
e 113 377
e 113 379
e 113 381
e 114 589
e 114 590
e 114 404
e 114 406
e 114 376
e 114 378
e 114 380
e 114 382
e 115 577
e 115 371
e 115 372
e 115 575
e 116 578
e 116 373
e 116 374
e 116 576
e 117 705
e 117 335
e 117 337
e 117 319
e 117 703
e 117 320
e 118 321
e 118 322
e 118 706
e 118 336
e 118 338
e 118 704
e 119 706
e 119 547
e 119 550
e 119 683
e 119 619
e 119 620
e 119 685
e 119 475
e 119 604
e 119 477
e 119 603
e 119 703
e 120 705
e 120 686
e 120 548
e 120 549
e 120 684
e 120 621
e 120 622
e 120 606
e 120 476
e 120 605
e 120 478
e 120 704
e 121 617
e 121 615
e 122 618
e 122 616
e 123 283
e 123 285
e 123 379
e 123 382
e 124 380
e 124 284
e 124 381
e 124 286
e 125 531
e 125 534
e 126 532
e 126 533
e 127 497
e 127 505
e 127 503
e 127 495
e 128 506
e 128 498
e 128 504
e 128 496
e 129 674
e 129 671
e 130 673
e 130 672
e 131 385
e 131 611
e 131 613
e 131 651
e 131 652
e 131 383
e 132 386
e 132 612
e 132 614
e 132 653
e 132 654
e 132 384
e 133 243
e 133 245
e 134 244
e 134 246
e 135 507
e 135 510
e 136 508
e 136 509
e 137 291
e 137 292
e 137 391
e 137 392
e 137 591
e 137 593
e 137 631
e 137 633
e 137 511
e 137 512
e 138 513
e 138 514
e 138 293
e 138 294
e 138 393
e 138 394
e 138 592
e 138 594
e 138 632
e 138 634
e 139 579
e 139 580
e 139 711
e 139 712
e 140 713
e 140 714
e 140 581
e 140 582
e 141 610
e 141 707
e 141 710
e 141 651
e 141 653
e 141 623
e 141 626
e 141 535
e 141 537
e 141 607
e 142 609
e 142 708
e 142 709
e 142 652
e 142 654
e 142 624
e 142 625
e 142 536
e 142 538
e 142 608
e 143 628
e 143 459
e 143 462
e 143 435
e 143 403
e 143 627
e 143 437
e 143 406
e 144 460
e 144 461
e 144 436
e 144 404
e 144 405
e 144 438
e 144 629
e 144 630
e 145 513
e 145 679
e 145 681
e 145 399
e 145 656
e 145 402
e 145 371
e 145 373
e 145 655
e 145 599
e 145 600
e 145 511
e 146 514
e 146 680
e 146 682
e 146 400
e 146 401
e 146 658
e 146 372
e 146 374
e 146 601
e 146 602
e 146 657
e 146 512
e 147 579
e 147 581
e 147 431
e 147 433
e 147 667
e 147 670
e 148 580
e 148 582
e 148 432
e 148 434
e 148 668
e 148 669
e 149 327
e 149 329
e 149 695
e 149 697
e 149 347
e 149 348
e 149 479
e 149 480
e 150 481
e 150 482
e 150 328
e 150 330
e 150 696
e 150 698
e 150 349
e 150 350
e 151 257
e 151 599
e 151 723
e 151 724
e 151 339
e 151 340
e 151 439
e 151 601
e 151 442
e 151 315
e 151 318
e 151 255
e 152 258
e 152 725
e 152 600
e 152 726
e 152 341
e 152 342
e 152 440
e 152 441
e 152 602
e 152 316
e 152 317
e 152 256
e 153 698
e 153 695
e 153 271
e 153 272
e 154 273
e 154 274
e 154 697
e 154 696
e 155 465
e 155 331
e 155 334
e 155 463
e 156 466
e 156 332
e 156 333
e 156 464
e 157 297
e 157 619
e 157 621
e 157 295
e 158 298
e 158 620
e 158 622
e 158 296
e 159 527
e 159 369
e 159 530
e 159 367
e 159 443
e 159 445
e 160 528
e 160 529
e 160 370
e 160 368
e 160 444
e 160 446
e 161 291
e 161 485
e 161 299
e 161 301
e 161 483
e 161 723
e 161 725
e 161 293
e 162 292
e 162 486
e 162 300
e 162 302
e 162 484
e 162 726
e 162 724
e 162 294
e 163 386
e 163 555
e 163 558
e 163 311
e 163 313
e 163 347
e 163 349
e 163 383
e 164 385
e 164 556
e 164 557
e 164 312
e 164 314
e 164 348
e 164 350
e 164 384
e 165 578
e 165 587
e 165 589
e 165 655
e 165 657
e 165 575
e 166 577
e 166 588
e 166 590
e 166 656
e 166 658
e 166 576
e 167 362
e 167 483
e 167 486
e 167 359
e 168 361
e 168 484
e 168 485
e 168 360
e 169 327
e 169 330
e 169 303
e 169 306
e 169 467
e 169 469
e 169 251
e 169 254
e 170 328
e 170 329
e 170 304
e 170 305
e 170 468
e 170 470
e 170 252
e 170 253
e 171 417
e 171 387
e 171 389
e 171 299
e 171 302
e 171 567
e 171 570
e 171 415
e 172 418
e 172 388
e 172 390
e 172 300
e 172 301
e 172 568
e 172 569
e 172 416
e 173 642
e 173 611
e 173 614
e 173 339
e 173 341
e 173 639
e 174 641
e 174 612
e 174 613
e 174 340
e 174 342
e 174 640
e 175 425
e 175 699
e 175 702
e 175 423
e 176 426
e 176 700
e 176 701
e 176 424
e 177 451
e 177 453
e 177 390
e 177 523
e 177 387
e 177 526
e 177 579
e 177 247
e 177 248
e 177 582
e 178 388
e 178 389
e 178 454
e 178 524
e 178 525
e 178 581
e 178 580
e 178 452
e 178 249
e 178 250
e 179 481
e 179 514
e 179 719
e 179 721
e 179 479
e 179 443
e 179 446
e 179 511
e 180 513
e 180 482
e 180 720
e 180 722
e 180 480
e 180 444
e 180 445
e 180 512
e 181 290
e 181 427
e 181 429
e 181 654
e 181 723
e 181 726
e 181 651
e 181 287
e 182 289
e 182 652
e 182 428
e 182 653
e 182 430
e 182 724
e 182 725
e 182 288
e 183 515
e 183 517
e 183 491
e 183 493
e 183 431
e 183 434
e 184 516
e 184 518
e 184 492
e 184 494
e 184 432
e 184 433
e 185 475
e 185 339
e 185 342
e 185 478
e 186 477
e 186 340
e 186 341
e 186 476
e 187 249
e 187 506
e 187 503
e 187 247
e 188 505
e 188 250
e 188 504
e 188 248
e 189 571
e 189 573
e 190 572
e 190 574
e 191 647
e 191 722
e 191 649
e 191 463
e 191 286
e 191 466
e 191 719
e 191 350
e 191 283
e 191 347
e 192 721
e 192 284
e 192 648
e 192 285
e 192 464
e 192 465
e 192 650
e 192 348
e 192 349
e 192 720
e 193 321
e 193 627
e 193 629
e 193 319
e 194 322
e 194 628
e 194 630
e 194 320
e 195 371
e 195 619
e 195 374
e 195 622
e 196 620
e 196 621
e 196 372
e 196 373
e 197 450
e 197 687
e 197 690
e 197 539
e 197 542
e 197 447
e 198 449
e 198 688
e 198 689
e 198 540
e 198 541
e 198 448
e 199 322
e 199 515
e 199 518
e 199 482
e 199 267
e 199 270
e 199 479
e 199 411
e 199 413
e 199 319
e 200 321
e 200 481
e 200 516
e 200 517
e 200 268
e 200 269
e 200 480
e 200 412
e 200 414
e 200 320
e 201 275
e 201 278
e 202 276
e 202 277
e 203 391
e 203 393
e 203 683
e 203 686
e 203 335
e 203 718
e 203 338
e 203 563
e 203 566
e 203 715
e 204 716
e 204 717
e 204 392
e 204 394
e 204 684
e 204 685
e 204 336
e 204 337
e 204 564
e 204 565
e 205 259
e 205 262
e 205 587
e 205 323
e 205 271
e 205 590
e 205 273
e 205 326
e 206 324
e 206 325
e 206 588
e 206 589
e 206 272
e 206 274
e 206 260
e 206 261
e 207 713
e 207 711
e 208 714
e 208 712
e 209 307
e 209 310
e 210 308
e 210 309
e 211 659
e 211 662
e 211 311
e 211 314
e 211 603
e 211 605
e 212 660
e 212 661
e 212 312
e 212 313
e 212 604
e 212 606
e 213 258
e 213 263
e 213 423
e 213 426
e 213 266
e 213 571
e 213 574
e 213 255
e 214 257
e 214 264
e 214 265
e 214 424
e 214 425
e 214 572
e 214 573
e 214 256
e 215 643
e 215 645
e 215 679
e 215 682
e 215 635
e 215 637
e 216 644
e 216 646
e 216 680
e 216 681
e 216 636
e 216 638
e 217 295
e 217 647
e 217 650
e 217 535
e 217 298
e 217 538
e 218 648
e 218 297
e 218 296
e 218 649
e 218 536
e 218 537
e 219 418
e 219 711
e 219 714
e 219 491
e 219 494
e 219 591
e 219 594
e 219 247
e 219 250
e 219 415
e 220 417
e 220 712
e 220 713
e 220 492
e 220 493
e 220 592
e 220 593
e 220 248
e 220 249
e 220 416
e 221 427
e 221 430
e 221 627
e 221 630
e 221 411
e 221 414
e 222 428
e 222 429
e 222 628
e 222 629
e 222 412
e 222 413
e 223 291
e 223 343
e 223 294
e 223 599
e 223 602
e 223 346
e 223 635
e 223 638
e 224 292
e 224 293
e 224 344
e 224 601
e 224 600
e 224 345
e 224 636
e 224 637
e 225 378
e 225 375
e 226 377
e 226 376
e 227 618
e 227 643
e 227 646
e 227 615
e 228 617
e 228 644
e 228 645
e 228 616
e 229 363
e 229 365
e 229 367
e 229 370
e 229 499
e 229 502
e 229 663
e 229 666
e 230 364
e 230 366
e 230 368
e 230 369
e 230 500
e 230 501
e 230 664
e 230 665
e 231 394
e 231 395
e 231 398
e 231 391
e 232 393
e 232 396
e 232 397
e 232 392
e 233 595
e 233 598
e 233 435
e 233 243
e 233 438
e 233 246
e 234 245
e 234 244
e 234 436
e 234 596
e 234 597
e 234 437
e 235 634
e 235 655
e 235 631
e 235 658
e 236 633
e 236 657
e 236 656
e 236 632
e 237 603
e 237 606
e 238 604
e 238 605
e 239 451
e 239 454
e 239 363
e 239 366
e 239 271
e 239 274
e 239 279
e 239 282
e 240 452
e 240 453
e 240 364
e 240 365
e 240 272
e 240 273
e 240 280
e 240 281
e 241 498
e 241 467
e 241 470
e 241 495
e 242 497
e 242 468
e 242 469
e 242 496